(set-info :Origin "This instance was generated by: BanditFuzz-- an RL fuzzer for SMT solvers" )
(set-info :Author "Joe Scott, Fed Mora, Vijay Ganesh" )
(set-info :Contact "Joe Scott, joseph.scott@uwaterloo.ca")
(set-logic QF_BV)
(declare-const bool_0 Bool)
(declare-const bool_1 Bool)
(declare-const bool_2 Bool)
(declare-const bool_3 Bool)
(declare-const bool_4 Bool)
(declare-const bv_0 (_ BitVec 32))
(declare-const bv_1 (_ BitVec 32))
(declare-const bv_2 (_ BitVec 32))
(declare-const bv_3 (_ BitVec 32))
(declare-const bv_4 (_ BitVec 32))
(assert (or (xor (and bool_3 true) (bvsle bv_2 #x1c28d770 )) (xor (bvult bv_3 bv_3) (or false false))))
(assert (xor (or (=> true true) (bvslt bv_1 #x73119c9f )) (bvule (bvnor #xa26b0348  bv_1) (bvurem bv_1 #x9b5f202e ))))
(assert (bvult (bvsub (bvashr #xea63abde  bv_3) (bvudiv #xde06b457  #x98a058e0 )) (bvxnor (bvmul #xefdcf0b4  bv_4) (bvlshr bv_2 bv_0))))
(assert (bvule (bvmul (bvlshr #x4907a752  bv_4) (bvadd bv_0 #xe72af44a )) (bvmul (bvurem #xe435bd09  bv_0) (bvadd bv_4 #xdb468bb7 ))))
(assert (and (bvslt (bvxor #x8082c557  #x0778a4c2 ) (bvsmod bv_1 #x9d0811fd )) (or (bvsle bv_0 #x7b82b014 ) (not bool_1))))
(check-sat)
(exit)
